6233916035,1717247506
10,10,10
81 63 6 18 72 64 86 95 76 43 
12 51 19 58 45 93 96 8 3 67 
43 49 4 7 39 15 30 14 5 54 
82 73 81 79 52 21 90 51 66 15 
19 52 91 75 61 22 36 9 29 94 
67 99 23 89 70 64 60 33 98 43 
61 72 93 54 18 31 27 45 52 48 
76 64 50 19 63 57 90 13 52 3 
29 59 44 96 60 30 6 16 6 79 
40 48 26 7 36 22 50 87 9 60 
MACHINES
10 8 4 9 6 3 2 7 1 5 
4 8 2 5 10 1 3 9 7 6 
6 10 4 3 5 2 7 9 8 1 
2 5 8 4 7 3 9 1 10 6 
3 5 2 9 6 7 8 1 10 4 
6 4 9 10 1 3 8 5 2 7 
5 7 10 8 3 4 2 6 9 1 
1 4 9 8 5 2 10 6 7 3 
2 3 6 7 10 8 4 1 9 5 
10 8 4 9 2 1 7 6 5 3 
